(set-info :source |printed by MathSAT|)
(declare-fun __VERIFIER_nondet_int!2@ () (_ BitVec 32))
(declare-fun |main::__CPAchecker_TMP_0@3| () (_ BitVec 32))
(declare-fun __VERIFIER_nondet_int!3@ () (_ BitVec 32))
(declare-fun |main::__CPAchecker_TMP_1@3| () (_ BitVec 32))
(declare-fun __VERIFIER_nondet_int!4@ () (_ BitVec 32))
(declare-fun |main::__CPAchecker_TMP_2@3| () (_ BitVec 32))
(declare-fun __VERIFIER_nondet_int!5@ () (_ BitVec 32))
(declare-fun |main::__CPAchecker_TMP_3@3| () (_ BitVec 32))
(declare-fun __VERIFIER_nondet_int!6@ () (_ BitVec 32))
(declare-fun |main::__CPAchecker_TMP_4@3| () (_ BitVec 32))
(declare-fun __VERIFIER_nondet_int!7@ () (_ BitVec 32))
(declare-fun |main::__CPAchecker_TMP_5@3| () (_ BitVec 32))
(declare-fun __VERIFIER_nondet_int!8@ () (_ BitVec 32))
(declare-fun |main::__CPAchecker_TMP_6@3| () (_ BitVec 32))
(declare-fun __VERIFIER_nondet_int!9@ () (_ BitVec 32))
(declare-fun |main::__CPAchecker_TMP_7@3| () (_ BitVec 32))
(declare-fun __VERIFIER_nondet_int!10@ () (_ BitVec 32))
(declare-fun |main::__CPAchecker_TMP_8@3| () (_ BitVec 32))
(declare-fun __VERIFIER_nondet_int!11@ () (_ BitVec 32))
(declare-fun |main::__CPAchecker_TMP_9@3| () (_ BitVec 32))
(declare-fun |__ADDRESS_OF_main::arr@| () (_ BitVec 32))
(declare-fun *int@1 () (Array (_ BitVec 32) (_ BitVec 32)))
(declare-fun __VERIFIER_nondet_int!12@ () (_ BitVec 32))
(declare-fun |main::x@3| () (_ BitVec 32))
(declare-fun |main::i@2| () (_ BitVec 32))
(declare-fun |main::i@3| () (_ BitVec 32))
(declare-fun |main::i@4| () (_ BitVec 32))
(declare-fun |main::i@5| () (_ BitVec 32))
(declare-fun |main::i@6| () (_ BitVec 32))
(declare-fun |main::i@7| () (_ BitVec 32))
(declare-fun |main::i@8| () (_ BitVec 32))
(declare-fun |main::i@9| () (_ BitVec 32))
(declare-fun |main::i@10| () (_ BitVec 32))
(declare-fun |main::i@11| () (_ BitVec 32))
(declare-fun |binary_search_function::arr@2| () (_ BitVec 32))
(declare-fun |binary_search_function::size@2| () (_ BitVec 32))
(declare-fun |binary_search_function::target@2| () (_ BitVec 32))
(declare-fun |binary_search_function::low@2| () (_ BitVec 32))
(declare-fun |binary_search_function::high@2| () (_ BitVec 32))
(declare-fun |binary_search_function::mid@3| () (_ BitVec 32))
(declare-fun |binary_search_function::high@3| () (_ BitVec 32))
(declare-fun |binary_search_function::__retval__@2| () (_ BitVec 32))
(declare-fun |binary_search_function::mid@4| () (_ BitVec 32))
(declare-fun |binary_search_function::high@4| () (_ BitVec 32))
(declare-fun |dumb_sort::arr@2| () (_ BitVec 32))
(declare-fun |dumb_sort::len@2| () (_ BitVec 32))
(declare-fun |dumb_sort::target@2| () (_ BitVec 32))
(declare-fun |dumb_sort::i@2| () (_ BitVec 32))
(declare-fun |dumb_sort::__retval__@2| () (_ BitVec 32))
(declare-fun |main::result@4| () (_ BitVec 32))
(declare-fun |main::__CPAchecker_TMP_10@4| () (_ BitVec 32))
(assert (let ((.def_2958 (= |main::result@4| |main::__CPAchecker_TMP_10@4|)))(let ((.def_2959 (not .def_2958)))(let ((.def_2956 (= |dumb_sort::__retval__@2| |main::__CPAchecker_TMP_10@4|)))(let ((.def_2948 (= |binary_search_function::__retval__@2| |main::result@4|)))(let ((.def_2942 (bvslt |binary_search_function::low@2| |binary_search_function::high@4|)))(let ((.def_2944 (not .def_2942)))(let ((.def_2934 (bvadd |binary_search_function::low@2| |binary_search_function::high@3|)))(let ((.def_2935 (bvsdiv .def_2934 (_ bv2 32))))(let ((.def_2936 (= |binary_search_function::mid@4| .def_2935)))(let ((.def_2931 (bvslt |binary_search_function::low@2| |binary_search_function::high@3|)))(let ((.def_517 (bvshl |binary_search_function::mid@3| (_ bv2 32))))(let ((.def_518 (bvadd |binary_search_function::arr@2| .def_517)))(let ((.def_519 (select *int@1 .def_518)))(let ((.def_538 (bvslt |binary_search_function::target@2| .def_519)))(let ((.def_525 (bvslt .def_519 |binary_search_function::target@2|)))(let ((.def_528 (not .def_525)))(let ((.def_520 (= |binary_search_function::target@2| .def_519)))(let ((.def_523 (not .def_520)))(let ((.def_511 (bvadd |binary_search_function::low@2| |binary_search_function::high@2|)))(let ((.def_512 (bvsdiv .def_511 (_ bv2 32))))(let ((.def_514 (= .def_512 |binary_search_function::mid@3|)))(let ((.def_506 (bvslt |binary_search_function::low@2| |binary_search_function::high@2|)))(let ((.def_502 (bvadd (_ bv4294967295 32) |binary_search_function::size@2|)))(let ((.def_504 (= .def_502 |binary_search_function::high@2|)))(let ((.def_497 (= |binary_search_function::low@2| (_ bv0 32))))(let ((.def_493 (= |main::x@3| |binary_search_function::target@2|)))(let ((.def_490 (= |binary_search_function::size@2| (_ bv10 32))))(let ((.def_487 (= |__ADDRESS_OF_main::arr@| |binary_search_function::arr@2|)))(let ((.def_491 (and .def_487 .def_490)))(let ((.def_494 (and .def_491 .def_493)))(let ((.def_476 (bvslt |main::i@11| (_ bv9 32))))(let ((.def_479 (not .def_476)))(let ((.def_463 (bvadd (_ bv1 32) |main::i@10|)))(let ((.def_474 (= .def_463 |main::i@11|)))(let ((.def_465 (bvshl .def_463 (_ bv2 32))))(let ((.def_466 (bvadd |__ADDRESS_OF_main::arr@| .def_465)))(let ((.def_467 (select *int@1 .def_466)))(let ((.def_459 (bvshl |main::i@10| (_ bv2 32))))(let ((.def_460 (bvadd |__ADDRESS_OF_main::arr@| .def_459)))(let ((.def_461 (select *int@1 .def_460)))(let ((.def_468 (bvslt .def_461 .def_467)))(let ((.def_444 (bvslt |main::i@10| (_ bv9 32))))(let ((.def_431 (bvadd (_ bv1 32) |main::i@9|)))(let ((.def_442 (= .def_431 |main::i@10|)))(let ((.def_433 (bvshl .def_431 (_ bv2 32))))(let ((.def_434 (bvadd |__ADDRESS_OF_main::arr@| .def_433)))(let ((.def_435 (select *int@1 .def_434)))(let ((.def_427 (bvshl |main::i@9| (_ bv2 32))))(let ((.def_428 (bvadd |__ADDRESS_OF_main::arr@| .def_427)))(let ((.def_429 (select *int@1 .def_428)))(let ((.def_436 (bvslt .def_429 .def_435)))(let ((.def_414 (bvslt |main::i@9| (_ bv9 32))))(let ((.def_401 (bvadd (_ bv1 32) |main::i@8|)))(let ((.def_412 (= .def_401 |main::i@9|)))(let ((.def_403 (bvshl .def_401 (_ bv2 32))))(let ((.def_404 (bvadd |__ADDRESS_OF_main::arr@| .def_403)))(let ((.def_405 (select *int@1 .def_404)))(let ((.def_397 (bvshl |main::i@8| (_ bv2 32))))(let ((.def_398 (bvadd |__ADDRESS_OF_main::arr@| .def_397)))(let ((.def_399 (select *int@1 .def_398)))(let ((.def_406 (bvslt .def_399 .def_405)))(let ((.def_383 (bvslt |main::i@8| (_ bv9 32))))(let ((.def_370 (bvadd (_ bv1 32) |main::i@7|)))(let ((.def_381 (= .def_370 |main::i@8|)))(let ((.def_372 (bvshl .def_370 (_ bv2 32))))(let ((.def_373 (bvadd |__ADDRESS_OF_main::arr@| .def_372)))(let ((.def_374 (select *int@1 .def_373)))(let ((.def_366 (bvshl |main::i@7| (_ bv2 32))))(let ((.def_367 (bvadd |__ADDRESS_OF_main::arr@| .def_366)))(let ((.def_368 (select *int@1 .def_367)))(let ((.def_375 (bvslt .def_368 .def_374)))(let ((.def_348 (bvslt |main::i@7| (_ bv9 32))))(let ((.def_335 (bvadd (_ bv1 32) |main::i@6|)))(let ((.def_346 (= .def_335 |main::i@7|)))(let ((.def_337 (bvshl .def_335 (_ bv2 32))))(let ((.def_338 (bvadd |__ADDRESS_OF_main::arr@| .def_337)))(let ((.def_339 (select *int@1 .def_338)))(let ((.def_331 (bvshl |main::i@6| (_ bv2 32))))(let ((.def_332 (bvadd |__ADDRESS_OF_main::arr@| .def_331)))(let ((.def_333 (select *int@1 .def_332)))(let ((.def_340 (bvslt .def_333 .def_339)))(let ((.def_314 (bvslt |main::i@6| (_ bv9 32))))(let ((.def_301 (bvadd (_ bv1 32) |main::i@5|)))(let ((.def_312 (= .def_301 |main::i@6|)))(let ((.def_303 (bvshl .def_301 (_ bv2 32))))(let ((.def_304 (bvadd |__ADDRESS_OF_main::arr@| .def_303)))(let ((.def_305 (select *int@1 .def_304)))(let ((.def_297 (bvshl |main::i@5| (_ bv2 32))))(let ((.def_298 (bvadd |__ADDRESS_OF_main::arr@| .def_297)))(let ((.def_299 (select *int@1 .def_298)))(let ((.def_306 (bvslt .def_299 .def_305)))(let ((.def_279 (bvslt |main::i@5| (_ bv9 32))))(let ((.def_266 (bvadd (_ bv1 32) |main::i@4|)))(let ((.def_277 (= .def_266 |main::i@5|)))(let ((.def_268 (bvshl .def_266 (_ bv2 32))))(let ((.def_269 (bvadd |__ADDRESS_OF_main::arr@| .def_268)))(let ((.def_270 (select *int@1 .def_269)))(let ((.def_262 (bvshl |main::i@4| (_ bv2 32))))(let ((.def_263 (bvadd |__ADDRESS_OF_main::arr@| .def_262)))(let ((.def_264 (select *int@1 .def_263)))(let ((.def_271 (bvslt .def_264 .def_270)))(let ((.def_244 (bvslt |main::i@4| (_ bv9 32))))(let ((.def_231 (bvadd (_ bv1 32) |main::i@3|)))(let ((.def_242 (= .def_231 |main::i@4|)))(let ((.def_233 (bvshl .def_231 (_ bv2 32))))(let ((.def_234 (bvadd |__ADDRESS_OF_main::arr@| .def_233)))(let ((.def_235 (select *int@1 .def_234)))(let ((.def_227 (bvshl |main::i@3| (_ bv2 32))))(let ((.def_228 (bvadd |__ADDRESS_OF_main::arr@| .def_227)))(let ((.def_229 (select *int@1 .def_228)))(let ((.def_236 (bvslt .def_229 .def_235)))(let ((.def_156 (bvslt |main::i@3| (_ bv9 32))))(let ((.def_143 (bvadd (_ bv1 32) |main::i@2|)))(let ((.def_154 (= .def_143 |main::i@3|)))(let ((.def_145 (bvshl .def_143 (_ bv2 32))))(let ((.def_146 (bvadd |__ADDRESS_OF_main::arr@| .def_145)))(let ((.def_147 (select *int@1 .def_146)))(let ((.def_139 (bvshl |main::i@2| (_ bv2 32))))(let ((.def_140 (bvadd |__ADDRESS_OF_main::arr@| .def_139)))(let ((.def_141 (select *int@1 .def_140)))(let ((.def_148 (bvslt .def_141 .def_147)))(let ((.def_133 (bvslt |main::i@2| (_ bv9 32))))(let ((.def_131 (= |main::i@2| (_ bv0 32))))(let ((.def_128 (= __VERIFIER_nondet_int!12@ |main::x@3|)))(let ((.def_52 (bvurem |__ADDRESS_OF_main::arr@| (_ bv4 32))))(let ((.def_53 (= .def_52 (_ bv0 32))))(let ((.def_51 (bvslt (_ bv0 32) |__ADDRESS_OF_main::arr@|)))(let ((.def_122 (and .def_51 .def_53)))(let ((.def_55 (bvadd (_ bv40 32) |__ADDRESS_OF_main::arr@|)))(let ((.def_56 (bvslt (_ bv0 32) .def_55)))(let ((.def_123 (and .def_56 .def_122)))(let ((.def_91 (bvadd (_ bv36 32) |__ADDRESS_OF_main::arr@|)))(let ((.def_119 (store *int@1 .def_91 |main::__CPAchecker_TMP_9@3|)))(let ((.def_120 (= *int@1 .def_119)))(let ((.def_87 (bvadd (_ bv32 32) |__ADDRESS_OF_main::arr@|)))(let ((.def_116 (store *int@1 .def_87 |main::__CPAchecker_TMP_8@3|)))(let ((.def_117 (= *int@1 .def_116)))(let ((.def_84 (bvadd (_ bv28 32) |__ADDRESS_OF_main::arr@|)))(let ((.def_113 (store *int@1 .def_84 |main::__CPAchecker_TMP_7@3|)))(let ((.def_114 (= *int@1 .def_113)))(let ((.def_80 (bvadd (_ bv24 32) |__ADDRESS_OF_main::arr@|)))(let ((.def_110 (store *int@1 .def_80 |main::__CPAchecker_TMP_6@3|)))(let ((.def_111 (= *int@1 .def_110)))(let ((.def_76 (bvadd (_ bv20 32) |__ADDRESS_OF_main::arr@|)))(let ((.def_107 (store *int@1 .def_76 |main::__CPAchecker_TMP_5@3|)))(let ((.def_108 (= *int@1 .def_107)))(let ((.def_72 (bvadd (_ bv16 32) |__ADDRESS_OF_main::arr@|)))(let ((.def_104 (store *int@1 .def_72 |main::__CPAchecker_TMP_4@3|)))(let ((.def_105 (= *int@1 .def_104)))(let ((.def_69 (bvadd (_ bv12 32) |__ADDRESS_OF_main::arr@|)))(let ((.def_101 (store *int@1 .def_69 |main::__CPAchecker_TMP_3@3|)))(let ((.def_102 (= *int@1 .def_101)))(let ((.def_65 (bvadd (_ bv8 32) |__ADDRESS_OF_main::arr@|)))(let ((.def_98 (store *int@1 .def_65 |main::__CPAchecker_TMP_2@3|)))(let ((.def_99 (= *int@1 .def_98)))(let ((.def_61 (bvadd (_ bv4 32) |__ADDRESS_OF_main::arr@|)))(let ((.def_95 (store *int@1 .def_61 |main::__CPAchecker_TMP_1@3|)))(let ((.def_96 (= *int@1 .def_95)))(let ((.def_93 (store *int@1 |__ADDRESS_OF_main::arr@| |main::__CPAchecker_TMP_0@3|)))(let ((.def_94 (= *int@1 .def_93)))(let ((.def_97 (and .def_94 .def_96)))(let ((.def_100 (and .def_97 .def_99)))(let ((.def_103 (and .def_100 .def_102)))(let ((.def_106 (and .def_103 .def_105)))(let ((.def_109 (and .def_106 .def_108)))(let ((.def_112 (and .def_109 .def_111)))(let ((.def_115 (and .def_112 .def_114)))(let ((.def_118 (and .def_115 .def_117)))(let ((.def_121 (and .def_118 .def_120)))(let ((.def_124 (and .def_121 .def_123)))(let ((.def_47 (= __VERIFIER_nondet_int!11@ |main::__CPAchecker_TMP_9@3|)))(let ((.def_43 (= __VERIFIER_nondet_int!10@ |main::__CPAchecker_TMP_8@3|)))(let ((.def_39 (= __VERIFIER_nondet_int!9@ |main::__CPAchecker_TMP_7@3|)))(let ((.def_35 (= __VERIFIER_nondet_int!8@ |main::__CPAchecker_TMP_6@3|)))(let ((.def_31 (= __VERIFIER_nondet_int!7@ |main::__CPAchecker_TMP_5@3|)))(let ((.def_27 (= __VERIFIER_nondet_int!6@ |main::__CPAchecker_TMP_4@3|)))(let ((.def_23 (= __VERIFIER_nondet_int!5@ |main::__CPAchecker_TMP_3@3|)))(let ((.def_19 (= __VERIFIER_nondet_int!4@ |main::__CPAchecker_TMP_2@3|)))(let ((.def_15 (= __VERIFIER_nondet_int!3@ |main::__CPAchecker_TMP_1@3|)))(let ((.def_12 (= __VERIFIER_nondet_int!2@ |main::__CPAchecker_TMP_0@3|)))(let ((.def_16 (and .def_12 .def_15)))(let ((.def_20 (and .def_16 .def_19)))(let ((.def_24 (and .def_20 .def_23)))(let ((.def_28 (and .def_24 .def_27)))(let ((.def_32 (and .def_28 .def_31)))(let ((.def_36 (and .def_32 .def_35)))(let ((.def_40 (and .def_36 .def_39)))(let ((.def_44 (and .def_40 .def_43)))(let ((.def_48 (and .def_44 .def_47)))(let ((.def_125 (and .def_48 .def_124)))(let ((.def_129 (and .def_125 .def_128)))(let ((.def_132 (and .def_129 .def_131)))(let ((.def_135 (and .def_132 .def_133)))(let ((.def_150 (and .def_135 .def_148)))(let ((.def_155 (and .def_150 .def_154)))(let ((.def_158 (and .def_155 .def_156)))(let ((.def_238 (and .def_158 .def_236)))(let ((.def_243 (and .def_238 .def_242)))(let ((.def_246 (and .def_243 .def_244)))(let ((.def_273 (and .def_246 .def_271)))(let ((.def_278 (and .def_273 .def_277)))(let ((.def_281 (and .def_278 .def_279)))(let ((.def_308 (and .def_281 .def_306)))(let ((.def_313 (and .def_308 .def_312)))(let ((.def_316 (and .def_313 .def_314)))(let ((.def_342 (and .def_316 .def_340)))(let ((.def_347 (and .def_342 .def_346)))(let ((.def_350 (and .def_347 .def_348)))(let ((.def_377 (and .def_350 .def_375)))(let ((.def_382 (and .def_377 .def_381)))(let ((.def_385 (and .def_382 .def_383)))(let ((.def_408 (and .def_385 .def_406)))(let ((.def_413 (and .def_408 .def_412)))(let ((.def_416 (and .def_413 .def_414)))(let ((.def_438 (and .def_416 .def_436)))(let ((.def_443 (and .def_438 .def_442)))(let ((.def_446 (and .def_443 .def_444)))(let ((.def_470 (and .def_446 .def_468)))(let ((.def_475 (and .def_470 .def_474)))(let ((.def_480 (and .def_475 .def_479)))(let ((.def_495 (and .def_480 .def_494)))(let ((.def_498 (and .def_495 .def_497)))(let ((.def_505 (and .def_498 .def_504)))(let ((.def_508 (and .def_505 .def_506)))(let ((.def_515 (and .def_508 .def_514)))(let ((.def_524 (and .def_515 .def_523)))(let ((.def_529 (and .def_524 .def_528)))(let ((.def_2929 (and .def_529 .def_538)))(let ((.def_545 (bvadd (_ bv4294967295 32) |binary_search_function::mid@3|)))(let ((.def_547 (= .def_545 |binary_search_function::high@3|)))(let ((.def_2930 (and .def_547 .def_2929)))(let ((.def_2933 (and .def_2930 .def_2931)))(let ((.def_2937 (and .def_2933 .def_2936)))(let ((.def_566 (bvshl |binary_search_function::mid@4| (_ bv2 32))))(let ((.def_567 (bvadd |binary_search_function::arr@2| .def_566)))(let ((.def_568 (select *int@1 .def_567)))(let ((.def_569 (= |binary_search_function::target@2| .def_568)))(let ((.def_572 (not .def_569)))(let ((.def_2938 (and .def_572 .def_2937)))(let ((.def_574 (bvslt .def_568 |binary_search_function::target@2|)))(let ((.def_577 (not .def_574)))(let ((.def_2939 (and .def_577 .def_2938)))(let ((.def_587 (bvslt |binary_search_function::target@2| .def_568)))(let ((.def_2940 (and .def_587 .def_2939)))(let ((.def_594 (bvadd (_ bv4294967295 32) |binary_search_function::mid@4|)))(let ((.def_596 (= .def_594 |binary_search_function::high@4|)))(let ((.def_2941 (and .def_596 .def_2940)))(let ((.def_2945 (and .def_2941 .def_2944)))(let ((.def_558 (= |binary_search_function::__retval__@2| (_ bv4294967295 32))))(let ((.def_2946 (and .def_558 .def_2945)))(let ((.def_2949 (and .def_2946 .def_2948)))(let ((.def_1048 (= |main::x@3| |dumb_sort::target@2|)))(let ((.def_1045 (= |dumb_sort::len@2| (_ bv10 32))))(let ((.def_1043 (= |__ADDRESS_OF_main::arr@| |dumb_sort::arr@2|)))(let ((.def_1046 (and .def_1043 .def_1045)))(let ((.def_1049 (and .def_1046 .def_1048)))(let ((.def_2950 (and .def_1049 .def_2949)))(let ((.def_1052 (= |dumb_sort::i@2| (_ bv0 32))))(let ((.def_2951 (and .def_1052 .def_2950)))(let ((.def_1054 (bvslt |dumb_sort::i@2| |dumb_sort::len@2|)))(let ((.def_2952 (and .def_1054 .def_2951)))(let ((.def_1060 (bvshl |dumb_sort::i@2| (_ bv2 32))))(let ((.def_1061 (bvadd |dumb_sort::arr@2| .def_1060)))(let ((.def_1062 (select *int@1 .def_1061)))(let ((.def_1063 (= |dumb_sort::target@2| .def_1062)))(let ((.def_2953 (and .def_1063 .def_2952)))(let ((.def_1245 (= |dumb_sort::i@2| |dumb_sort::__retval__@2|)))(let ((.def_2954 (and .def_1245 .def_2953)))(let ((.def_2957 (and .def_2954 .def_2956)))(let ((.def_2961 (and .def_2957 .def_2959))).def_2961)))))))))))))))))))))))))))))))))))))))))))))))))))))))))))))))))))))))))))))))))))))))))))))))))))))))))))))))))))))))))))))))))))))))))))))))))))))))))))))))))))))))))))))))))))))))))))))))))))))))))))))))))))))))))))))))))))))))))))))))))))))))))))))))))))))))))))))))